30	100	100	100
85	77	7
89	80	17
79	80	14
67	95	26
85	81	47
78	86	20
76	70	32
81	86	48
97	78	32
91	85	28
80	66	11
70	98	48
68	69	45
96	92	1
87	92	34
72	80	13
90	88	14
80	87	29
69	94	30
87	79	22
83	74	6
84	99	14
69	81	47
83	69	47
88	94	34
96	79	5
76	99	47
98	76	3
82	88	31
83	75	13
